benchmark/results/graph__10-1000-0.10-02_9/graph__10-1000-0.10-02_9_Quinton_Benders_primal_sub.lp
\ This file has been generated by DOcplex
\ ENCODING=ISO-8859-1
\Problem name: Quinton Benders_primal_sub

Maximize
 obj: tau
Subject To
 c1: tau <= 0.001349527665
 c2: y_a0_proc_0 + y_a0_proc_1 - tau = 0
 c3: y_a0_proc_0 <= 1
 c4: y_a0_proc_1 <= 0
 c5: tau <= 0.001572327044
 c6: y_a1_proc_0 + y_a1_proc_1 - tau = 0
 c7: y_a1_proc_0 <= 1
 c8: y_a1_proc_1 <= 0
 c9: tau <= 0.000856164384
 c10: y_a2_proc_0 - tau = 0
 c11: y_a2_proc_0 <= 1
 c12: tau <= 0.000914913083
 c13: y_a3_proc_0 - tau = 0
 c14: y_a3_proc_0 <= 1
 c15: tau <= 0.001200480192
 c16: y_a4_proc_0 + y_a4_proc_1 - tau = 0
 c17: y_a4_proc_0 <= 0
 c18: y_a4_proc_1 <= 1
 c19: tau <= 0.001164144354
 c20: y_a5_proc_0 + y_a5_proc_1 - tau = 0
 c21: y_a5_proc_0 <= 0
 c22: y_a5_proc_1 <= 1
 c23: tau <= 0.001335113485
 c24: y_a6_proc_0 + y_a6_proc_1 - tau = 0
 c25: y_a6_proc_0 <= 0
 c26: y_a6_proc_1 <= 1
 c27: tau <= 0.000796812749
 c28: y_a7_proc_0 + y_a7_proc_1 - tau = 0
 c29: y_a7_proc_0 <= 0
 c30: y_a7_proc_1 <= 1
 c31: tau <= 0.000856164384
 c32: y_a8_proc_0 + y_a8_proc_1 - tau = 0
 c33: y_a8_proc_0 <= 0
 c34: y_a8_proc_1 <= 1
 c35: tau <= 0.001890359168
 c36: y_a9_proc_0 + y_a9_proc_1 - tau = 0
 c37: y_a9_proc_0 <= 1
 c38: y_a9_proc_1 <= 0
 c39: u_a0 - u_a1 - 636 y_a1_proc_0 - 1100 y_a1_proc_1 >= -2
 c40: u_a2 - u_a0 - 741 y_a0_proc_0 - 591 y_a0_proc_1 >= -1
 c41: u_a1 - u_a3 - 1093 y_a3_proc_0 >= 0
 c42: u_a3 - u_a4 - 971 y_a4_proc_0 - 833 y_a4_proc_1 >= 0
 c43: u_a4 - u_a5 - 1109 y_a5_proc_0 - 859 y_a5_proc_1 >= -2
 c44: u_a6 - u_a5 - 1109 y_a5_proc_0 - 859 y_a5_proc_1 >= -1
 c45: u_a7 - u_a3 - 1093 y_a3_proc_0 >= 0
 c46: u_a8 - u_a4 - 971 y_a4_proc_0 - 833 y_a4_proc_1 >= 0
 c47: u_a9 - u_a2 - 1168 y_a2_proc_0 >= 0
 c48: u_a6 - u_a8 - 833 y_a8_proc_0 - 1168 y_a8_proc_1 >= 0
 c49: u_a4 - u_a9 - 529 y_a9_proc_0 - 485 y_a9_proc_1 >= 0
 c50: u_a7 - u_a6 - 1004 y_a6_proc_0 - 749 y_a6_proc_1 >= 0
 c51: u_a0 - u_a2 - 1168 y_a2_proc_0 >= 0
 c52: u_a8 - u_a2 - 1168 y_a2_proc_0 >= 0
 c53: u_a0 - u_a9 - 529 y_a9_proc_0 - 485 y_a9_proc_1 >= 0
 c54: u_a4 - u_a3 - 1093 y_a3_proc_0 >= -1
 c55: u_a5 - u_a7 - 1176 y_a7_proc_0 - 1255 y_a7_proc_1 >= 0
 c56: u_a1 - u_a6 - 1004 y_a6_proc_0 - 749 y_a6_proc_1 >= 0
 c57: u_a1 - u_a0 - 591 y_a0_proc_1 >= -2509
 c58: u_a1 - u_a0 - 741 y_a0_proc_0 >= 1
 c59: u_a0 - u_a1 - 1100 y_a1_proc_1 >= -2512
 c60: u_a0 - u_a1 - 636 y_a1_proc_0 >= -2
 c61: u_a2 - u_a0 - 741 y_a0_proc_0 >= -1
 c62: u_a0 - u_a2 - 1168 y_a2_proc_0 >= 0
 c63: u_a3 - u_a0 - 741 y_a0_proc_0 >= 1
 c64: u_a0 - u_a3 - 1093 y_a3_proc_0 >= -2
 c65: u_a4 - u_a0 - 591 y_a0_proc_1 >= 0
 c66: u_a4 - u_a0 - 741 y_a0_proc_0 >= 0
 c67: u_a0 - u_a4 - 833 y_a4_proc_1 >= -2511
 c68: u_a0 - u_a4 - 971 y_a4_proc_0 >= -2511
 c69: u_a5 - u_a0 - 591 y_a0_proc_1 >= 2
 c70: u_a5 - u_a0 - 741 y_a0_proc_0 >= 2
 c71: u_a0 - u_a5 - 859 y_a5_proc_1 >= -2513
 c72: u_a0 - u_a5 - 1109 y_a5_proc_0 >= -2513
 c73: u_a6 - u_a0 - 591 y_a0_proc_1 >= -2509
 c74: u_a6 - u_a0 - 741 y_a0_proc_0 >= -2509
 c75: u_a0 - u_a6 - 749 y_a6_proc_1 >= -2
 c76: u_a0 - u_a6 - 1004 y_a6_proc_0 >= -2
 c77: u_a7 - u_a0 - 591 y_a0_proc_1 >= -1241
 c78: u_a7 - u_a0 - 741 y_a0_proc_0 >= -1241
 c79: u_a0 - u_a7 - 1255 y_a7_proc_1 >= -1270
 c80: u_a0 - u_a7 - 1176 y_a7_proc_0 >= -1270
 c81: u_a8 - u_a0 - 591 y_a0_proc_1 >= -2509
 c82: u_a8 - u_a0 - 741 y_a0_proc_0 >= -2509
 c83: u_a0 - u_a8 - 1168 y_a8_proc_1 >= -2
 c84: u_a0 - u_a8 - 833 y_a8_proc_0 >= -2
 c85: u_a9 - u_a0 - 591 y_a0_proc_1 >= -2511
 c86: u_a9 - u_a0 - 741 y_a0_proc_0 >= -1
 c87: u_a0 - u_a9 - 485 y_a9_proc_1 >= -2510
 c88: u_a0 - u_a9 - 529 y_a9_proc_0 >= 0
 c89: u_a2 - u_a1 - 636 y_a1_proc_0 >= -3
 c90: u_a1 - u_a2 - 1168 y_a2_proc_0 >= 2
 c91: u_a3 - u_a1 - 636 y_a1_proc_0 >= -1
 c92: u_a1 - u_a3 - 1093 y_a3_proc_0 >= 0
 c93: u_a4 - u_a1 - 1100 y_a1_proc_1 >= -2511
 c94: u_a4 - u_a1 - 636 y_a1_proc_0 >= -2511
 c95: u_a1 - u_a4 - 833 y_a4_proc_1 >= 0
 c96: u_a1 - u_a4 - 971 y_a4_proc_0 >= 0
 c97: u_a5 - u_a1 - 1100 y_a1_proc_1 >= -1451
 c98: u_a5 - u_a1 - 636 y_a1_proc_0 >= -1451
 c99: u_a1 - u_a5 - 859 y_a5_proc_1 >= -1060
 c100: u_a1 - u_a5 - 1109 y_a5_proc_0 >= -1060
 c101: u_a6 - u_a1 - 1100 y_a1_proc_1 >= -2511
 c102: u_a6 - u_a1 - 636 y_a1_proc_0 >= -2511
 c103: u_a1 - u_a6 - 749 y_a6_proc_1 >= 0
 c104: u_a1 - u_a6 - 1004 y_a6_proc_0 >= 0
 c105: u_a7 - u_a1 - 1100 y_a1_proc_1 >= -2510
 c106: u_a7 - u_a1 - 636 y_a1_proc_0 >= -2510
 c107: u_a1 - u_a7 - 1255 y_a7_proc_1 >= -1
 c108: u_a1 - u_a7 - 1176 y_a7_proc_0 >= -1
 c109: u_a8 - u_a1 - 1100 y_a1_proc_1 >= -2511
 c110: u_a8 - u_a1 - 636 y_a1_proc_0 >= -2511
 c111: u_a1 - u_a8 - 1168 y_a8_proc_1 >= 0
 c112: u_a1 - u_a8 - 833 y_a8_proc_0 >= 0
 c113: u_a9 - u_a1 - 1100 y_a1_proc_1 >= -2512
 c114: u_a9 - u_a1 - 636 y_a1_proc_0 >= -2
 c115: u_a1 - u_a9 - 485 y_a9_proc_1 >= -2509
 c116: u_a1 - u_a9 - 529 y_a9_proc_0 >= 1
 c117: u_a3 - u_a2 - 1168 y_a2_proc_0 >= 2
 c118: u_a2 - u_a3 - 1093 y_a3_proc_0 >= -3
 c119: u_a4 - u_a2 - 1168 y_a2_proc_0 >= -2509
 c120: u_a2 - u_a4 - 971 y_a4_proc_0 >= -2
 c121: u_a5 - u_a2 - 1168 y_a2_proc_0 >= -2507
 c122: u_a2 - u_a5 - 1109 y_a5_proc_0 >= -4
 c123: u_a6 - u_a2 - 1168 y_a2_proc_0 >= 2
 c124: u_a2 - u_a6 - 1004 y_a6_proc_0 >= -2513
 c125: u_a7 - u_a2 - 1168 y_a2_proc_0 >= 2
 c126: u_a2 - u_a7 - 1176 y_a7_proc_0 >= -2513
 c127: u_a8 - u_a2 - 1168 y_a2_proc_0 >= -2508
 c128: u_a2 - u_a8 - 833 y_a8_proc_0 >= -3
 c129: u_a9 - u_a2 - 1168 y_a2_proc_0 >= 0
 c130: u_a2 - u_a9 - 529 y_a9_proc_0 >= -1
 c131: u_a4 - u_a3 - 1093 y_a3_proc_0 >= -2511
 c132: u_a3 - u_a4 - 971 y_a4_proc_0 >= 0
 c133: u_a5 - u_a3 - 1093 y_a3_proc_0 >= -2510
 c134: u_a3 - u_a5 - 1109 y_a5_proc_0 >= -1
 c135: u_a6 - u_a3 - 1093 y_a3_proc_0 >= -1797
 c136: u_a3 - u_a6 - 1004 y_a6_proc_0 >= -714
 c137: u_a7 - u_a3 - 1093 y_a3_proc_0 >= -2510
 c138: u_a3 - u_a7 - 1176 y_a7_proc_0 >= -1
 c139: u_a8 - u_a3 - 1093 y_a3_proc_0 >= -2511
 c140: u_a3 - u_a8 - 833 y_a8_proc_0 >= 0
 c141: u_a9 - u_a3 - 1093 y_a3_proc_0 >= -2
 c142: u_a3 - u_a9 - 529 y_a9_proc_0 >= 1
 c143: u_a5 - u_a4 - 833 y_a4_proc_1 >= 1
 c144: u_a5 - u_a4 - 971 y_a4_proc_0 >= -2509
 c145: u_a4 - u_a5 - 859 y_a5_proc_1 >= -2
 c146: u_a4 - u_a5 - 1109 y_a5_proc_0 >= -2512
 c147: u_a6 - u_a4 - 833 y_a4_proc_1 >= 0
 c148: u_a6 - u_a4 - 971 y_a4_proc_0 >= -2510
 c149: u_a4 - u_a6 - 749 y_a6_proc_1 >= -1
 c150: u_a4 - u_a6 - 1004 y_a6_proc_0 >= -2511
 c151: u_a7 - u_a4 - 833 y_a4_proc_1 >= 1
 c152: u_a7 - u_a4 - 971 y_a4_proc_0 >= -2509
 c153: u_a4 - u_a7 - 1255 y_a7_proc_1 >= -2
 c154: u_a4 - u_a7 - 1176 y_a7_proc_0 >= -2512
 c155: u_a8 - u_a4 - 833 y_a4_proc_1 >= 0
 c156: u_a8 - u_a4 - 971 y_a4_proc_0 >= -2510
 c157: u_a4 - u_a8 - 1168 y_a8_proc_1 >= -1
 c158: u_a4 - u_a8 - 833 y_a8_proc_0 >= -2511
 c159: u_a9 - u_a4 - 833 y_a4_proc_1 >= -1
 c160: u_a9 - u_a4 - 971 y_a4_proc_0 >= -1
 c161: u_a4 - u_a9 - 485 y_a9_proc_1 >= -2510
 c162: u_a4 - u_a9 - 529 y_a9_proc_0 >= -2510
 c163: u_a6 - u_a5 - 859 y_a5_proc_1 >= -1
 c164: u_a6 - u_a5 - 1109 y_a5_proc_0 >= -2511
 c165: u_a5 - u_a6 - 749 y_a6_proc_1 >= 0
 c166: u_a5 - u_a6 - 1004 y_a6_proc_0 >= -2510
 c167: u_a7 - u_a5 - 859 y_a5_proc_1 >= -1
 c168: u_a7 - u_a5 - 1109 y_a5_proc_0 >= -2511
 c169: u_a5 - u_a7 - 1255 y_a7_proc_1 >= 0
 c170: u_a5 - u_a7 - 1176 y_a7_proc_0 >= -2510
 c171: u_a8 - u_a5 - 859 y_a5_proc_1 >= -1
 c172: u_a8 - u_a5 - 1109 y_a5_proc_0 >= -2511
 c173: u_a5 - u_a8 - 1168 y_a8_proc_1 >= 0
 c174: u_a5 - u_a8 - 833 y_a8_proc_0 >= -2510
 c175: u_a9 - u_a5 - 859 y_a5_proc_1 >= -3
 c176: u_a9 - u_a5 - 1109 y_a5_proc_0 >= -3
 c177: u_a5 - u_a9 - 485 y_a9_proc_1 >= -2508
 c178: u_a5 - u_a9 - 529 y_a9_proc_0 >= -2508
 c179: u_a7 - u_a6 - 749 y_a6_proc_1 >= 0
 c180: u_a7 - u_a6 - 1004 y_a6_proc_0 >= -2510
 c181: u_a6 - u_a7 - 1255 y_a7_proc_1 >= -1
 c182: u_a6 - u_a7 - 1176 y_a7_proc_0 >= -2511
 c183: u_a8 - u_a6 - 749 y_a6_proc_1 >= -1
 c184: u_a8 - u_a6 - 1004 y_a6_proc_0 >= -2511
 c185: u_a6 - u_a8 - 1168 y_a8_proc_1 >= 0
 c186: u_a6 - u_a8 - 833 y_a8_proc_0 >= -2510
 c187: u_a9 - u_a6 - 749 y_a6_proc_1 >= -2512
 c188: u_a9 - u_a6 - 1004 y_a6_proc_0 >= -2512
 c189: u_a6 - u_a9 - 485 y_a9_proc_1 >= 1
 c190: u_a6 - u_a9 - 529 y_a9_proc_0 >= 1
 c191: u_a8 - u_a7 - 1255 y_a7_proc_1 >= -1
 c192: u_a8 - u_a7 - 1176 y_a7_proc_0 >= -2511
 c193: u_a7 - u_a8 - 1168 y_a8_proc_1 >= 0
 c194: u_a7 - u_a8 - 833 y_a8_proc_0 >= -2510
 c195: u_a9 - u_a7 - 1255 y_a7_proc_1 >= -1035
 c196: u_a9 - u_a7 - 1176 y_a7_proc_0 >= -1035
 c197: u_a7 - u_a9 - 485 y_a9_proc_1 >= -1476
 c198: u_a7 - u_a9 - 529 y_a9_proc_0 >= -1476
 c199: u_a9 - u_a8 - 1168 y_a8_proc_1 >= -2512
 c200: u_a9 - u_a8 - 833 y_a8_proc_0 >= -2512
 c201: u_a8 - u_a9 - 485 y_a9_proc_1 >= 1
 c202: u_a8 - u_a9 - 529 y_a9_proc_0 >= 1

Bounds
End
