benchmark/results/graph__10-1000-0.10-02_9/graph__10-1000-0.10-02_9_Quinton_Benders_primal_sub.txt
solution for: Quinton Benders_primal_sub
objective: 0.00020496
status: OPTIMAL_SOLUTION(2)
u_a0=0.848
u_a1=2.569
u_a3=2.239
u_a4=1.569
u_a5=3.000
u_a6=2.415
u_a7=2.740
u_a8=2.176
u_a9=0.740
tau=0.000
y_a0_proc_0=0.000
y_a1_proc_0=0.000
y_a2_proc_0=0.000
y_a3_proc_0=0.000
y_a4_proc_1=0.000
y_a5_proc_1=0.000
y_a6_proc_1=0.000
y_a7_proc_1=0.000
y_a8_proc_1=0.000
y_a9_proc_0=0.000
